c File: flat50_3_0.col
c
c SOURCE: Joseph Culberson (joe@cs.ualberta.ca)
c DESCRIPTION: Quasi-random coloring problem
c              generated with flatness = 0
c                             probability = 0.139
c                             known coloring = 3
c                             random seed = 1483
c              Creation Date:  Tue Jun  9 12:10:26 1998
c Maximum degree = 8 Minimum degree = 0
c p edge 50 115
c cnf created by edge2cnf
p cnf 150 545
-1 -2 0
-1 -3 0
-2 -3 0
1 2 3 0
-4 -5 0
-4 -6 0
-5 -6 0
4 5 6 0
-7 -8 0
-7 -9 0
-8 -9 0
7 8 9 0
-10 -11 0
-10 -12 0
-11 -12 0
10 11 12 0
-13 -14 0
-13 -15 0
-14 -15 0
13 14 15 0
-16 -17 0
-16 -18 0
-17 -18 0
16 17 18 0
-19 -20 0
-19 -21 0
-20 -21 0
19 20 21 0
-22 -23 0
-22 -24 0
-23 -24 0
22 23 24 0
-25 -26 0
-25 -27 0
-26 -27 0
25 26 27 0
-28 -29 0
-28 -30 0
-29 -30 0
28 29 30 0
-31 -32 0
-31 -33 0
-32 -33 0
31 32 33 0
-34 -35 0
-34 -36 0
-35 -36 0
34 35 36 0
-37 -38 0
-37 -39 0
-38 -39 0
37 38 39 0
-40 -41 0
-40 -42 0
-41 -42 0
40 41 42 0
-43 -44 0
-43 -45 0
-44 -45 0
43 44 45 0
-46 -47 0
-46 -48 0
-47 -48 0
46 47 48 0
-49 -50 0
-49 -51 0
-50 -51 0
49 50 51 0
-52 -53 0
-52 -54 0
-53 -54 0
52 53 54 0
-55 -56 0
-55 -57 0
-56 -57 0
55 56 57 0
-58 -59 0
-58 -60 0
-59 -60 0
58 59 60 0
-61 -62 0
-61 -63 0
-62 -63 0
61 62 63 0
-64 -65 0
-64 -66 0
-65 -66 0
64 65 66 0
-67 -68 0
-67 -69 0
-68 -69 0
67 68 69 0
-70 -71 0
-70 -72 0
-71 -72 0
70 71 72 0
-73 -74 0
-73 -75 0
-74 -75 0
73 74 75 0
-76 -77 0
-76 -78 0
-77 -78 0
76 77 78 0
-79 -80 0
-79 -81 0
-80 -81 0
79 80 81 0
-82 -83 0
-82 -84 0
-83 -84 0
82 83 84 0
-85 -86 0
-85 -87 0
-86 -87 0
85 86 87 0
-88 -89 0
-88 -90 0
-89 -90 0
88 89 90 0
-91 -92 0
-91 -93 0
-92 -93 0
91 92 93 0
-94 -95 0
-94 -96 0
-95 -96 0
94 95 96 0
-97 -98 0
-97 -99 0
-98 -99 0
97 98 99 0
-100 -101 0
-100 -102 0
-101 -102 0
100 101 102 0
-103 -104 0
-103 -105 0
-104 -105 0
103 104 105 0
-106 -107 0
-106 -108 0
-107 -108 0
106 107 108 0
-109 -110 0
-109 -111 0
-110 -111 0
109 110 111 0
-112 -113 0
-112 -114 0
-113 -114 0
112 113 114 0
-115 -116 0
-115 -117 0
-116 -117 0
115 116 117 0
-118 -119 0
-118 -120 0
-119 -120 0
118 119 120 0
-121 -122 0
-121 -123 0
-122 -123 0
121 122 123 0
-124 -125 0
-124 -126 0
-125 -126 0
124 125 126 0
-127 -128 0
-127 -129 0
-128 -129 0
127 128 129 0
-130 -131 0
-130 -132 0
-131 -132 0
130 131 132 0
-133 -134 0
-133 -135 0
-134 -135 0
133 134 135 0
-136 -137 0
-136 -138 0
-137 -138 0
136 137 138 0
-139 -140 0
-139 -141 0
-140 -141 0
139 140 141 0
-142 -143 0
-142 -144 0
-143 -144 0
142 143 144 0
-145 -146 0
-145 -147 0
-146 -147 0
145 146 147 0
-148 -149 0
-148 -150 0
-149 -150 0
148 149 150 0
-88 -1 0
-89 -2 0
-90 -3 0
-94 -1 0
-95 -2 0
-96 -3 0
-103 -1 0
-104 -2 0
-105 -3 0
-127 -1 0
-128 -2 0
-129 -3 0
-139 -1 0
-140 -2 0
-141 -3 0
-67 -4 0
-68 -5 0
-69 -6 0
-109 -4 0
-110 -5 0
-111 -6 0
-112 -4 0
-113 -5 0
-114 -6 0
-58 -7 0
-59 -8 0
-60 -9 0
-61 -7 0
-62 -8 0
-63 -9 0
-82 -7 0
-83 -8 0
-84 -9 0
-118 -7 0
-119 -8 0
-120 -9 0
-133 -7 0
-134 -8 0
-135 -9 0
-79 -10 0
-80 -11 0
-81 -12 0
-121 -10 0
-122 -11 0
-123 -12 0
-88 -13 0
-89 -14 0
-90 -15 0
-103 -13 0
-104 -14 0
-105 -15 0
-112 -13 0
-113 -14 0
-114 -15 0
-55 -16 0
-56 -17 0
-57 -18 0
-58 -16 0
-59 -17 0
-60 -18 0
-70 -16 0
-71 -17 0
-72 -18 0
-100 -16 0
-101 -17 0
-102 -18 0
-115 -16 0
-116 -17 0
-117 -18 0
-73 -19 0
-74 -20 0
-75 -21 0
-76 -19 0
-77 -20 0
-78 -21 0
-94 -19 0
-95 -20 0
-96 -21 0
-130 -19 0
-131 -20 0
-132 -21 0
-136 -19 0
-137 -20 0
-138 -21 0
-142 -19 0
-143 -20 0
-144 -21 0
-145 -19 0
-146 -20 0
-147 -21 0
-70 -22 0
-71 -23 0
-72 -24 0
-91 -22 0
-92 -23 0
-93 -24 0
-109 -22 0
-110 -23 0
-111 -24 0
-55 -25 0
-56 -26 0
-57 -27 0
-58 -25 0
-59 -26 0
-60 -27 0
-88 -25 0
-89 -26 0
-90 -27 0
-148 -25 0
-149 -26 0
-150 -27 0
-52 -28 0
-53 -29 0
-54 -30 0
-91 -28 0
-92 -29 0
-93 -30 0
-94 -28 0
-95 -29 0
-96 -30 0
-100 -28 0
-101 -29 0
-102 -30 0
-106 -28 0
-107 -29 0
-108 -30 0
-115 -28 0
-116 -29 0
-117 -30 0
-118 -28 0
-119 -29 0
-120 -30 0
-127 -28 0
-128 -29 0
-129 -30 0
-58 -31 0
-59 -32 0
-60 -33 0
-94 -31 0
-95 -32 0
-96 -33 0
-112 -31 0
-113 -32 0
-114 -33 0
-115 -31 0
-116 -32 0
-117 -33 0
-127 -31 0
-128 -32 0
-129 -33 0
-106 -34 0
-107 -35 0
-108 -36 0
-115 -34 0
-116 -35 0
-117 -36 0
-79 -37 0
-80 -38 0
-81 -39 0
-88 -37 0
-89 -38 0
-90 -39 0
-112 -37 0
-113 -38 0
-114 -39 0
-136 -37 0
-137 -38 0
-138 -39 0
-55 -40 0
-56 -41 0
-57 -42 0
-91 -40 0
-92 -41 0
-93 -42 0
-118 -40 0
-119 -41 0
-120 -42 0
-70 -43 0
-71 -44 0
-72 -45 0
-79 -43 0
-80 -44 0
-81 -45 0
-91 -43 0
-92 -44 0
-93 -45 0
-100 -43 0
-101 -44 0
-102 -45 0
-109 -43 0
-110 -44 0
-111 -45 0
-127 -43 0
-128 -44 0
-129 -45 0
-133 -43 0
-134 -44 0
-135 -45 0
-142 -43 0
-143 -44 0
-144 -45 0
-73 -46 0
-74 -47 0
-75 -48 0
-97 -46 0
-98 -47 0
-99 -48 0
-118 -46 0
-119 -47 0
-120 -48 0
-121 -46 0
-122 -47 0
-123 -48 0
-139 -46 0
-140 -47 0
-141 -48 0
-145 -46 0
-146 -47 0
-147 -48 0
-55 -49 0
-56 -50 0
-57 -51 0
-76 -49 0
-77 -50 0
-78 -51 0
-79 -49 0
-80 -50 0
-81 -51 0
-85 -49 0
-86 -50 0
-87 -51 0
-103 -52 0
-104 -53 0
-105 -54 0
-109 -52 0
-110 -53 0
-111 -54 0
-127 -52 0
-128 -53 0
-129 -54 0
-142 -52 0
-143 -53 0
-144 -54 0
-103 -55 0
-104 -56 0
-105 -57 0
-127 -55 0
-128 -56 0
-129 -57 0
-136 -55 0
-137 -56 0
-138 -57 0
-136 -58 0
-137 -59 0
-138 -60 0
-127 -61 0
-128 -62 0
-129 -63 0
-106 -64 0
-107 -65 0
-108 -66 0
-109 -64 0
-110 -65 0
-111 -66 0
-127 -64 0
-128 -65 0
-129 -66 0
-145 -64 0
-146 -65 0
-147 -66 0
-112 -67 0
-113 -68 0
-114 -69 0
-148 -67 0
-149 -68 0
-150 -69 0
-106 -70 0
-107 -71 0
-108 -72 0
-109 -70 0
-110 -71 0
-111 -72 0
-142 -70 0
-143 -71 0
-144 -72 0
-103 -73 0
-104 -74 0
-105 -75 0
-112 -73 0
-113 -74 0
-114 -75 0
-133 -73 0
-134 -74 0
-135 -75 0
-112 -79 0
-113 -80 0
-114 -81 0
-148 -79 0
-149 -80 0
-150 -81 0
-139 -82 0
-140 -83 0
-141 -84 0
-133 -85 0
-134 -86 0
-135 -87 0
-139 -85 0
-140 -86 0
-141 -87 0
-130 -88 0
-131 -89 0
-132 -90 0
-142 -88 0
-143 -89 0
-144 -90 0
-148 -88 0
-149 -89 0
-150 -90 0
-115 -91 0
-116 -92 0
-117 -93 0
-130 -91 0
-131 -92 0
-132 -93 0
-142 -91 0
-143 -92 0
-144 -93 0
-103 -94 0
-104 -95 0
-105 -96 0
-121 -94 0
-122 -95 0
-123 -96 0
-130 -94 0
-131 -95 0
-132 -96 0
-115 -97 0
-116 -98 0
-117 -99 0
-145 -97 0
-146 -98 0
-147 -99 0
-112 -100 0
-113 -101 0
-114 -102 0
